100
128
22
24
7
7
41
52
19
47
52
12
31
33
26
6
25
43
5
47
12
59
49
14
35
2
25
37
51
17
23
11
44
22
16
34
1
15
25
39
58
12
18
19
16
28
3
14
13
30
43
34
36
11
45
16
12
15
14
27
53
22
4
56
2
19
49
39
40
50
2
38
17
3
17
20
34
55
2
34
32
62
2
31
1
24
31
21
49
2
47
19
32
38
3
1
62
21
28
35
49
44